(set-info :origin "driver benchmark extracted from Microsoft SDV")
(set-logic HORN)
(declare-fun Proc7 (Int (Array Int Int) Int Bool Int Int Int Int) Bool)
(declare-fun Proc31 (Int (Array Int Int) Int Bool Int) Bool)
(declare-fun Proc10 (Int (Array Int Int) Int Bool Int Int Int Int) Bool)
(declare-fun Proc17 (Int (Array Int Int) Int Bool Int Int Int) Bool)
(declare-fun Proc8 (Int (Array Int Int) Int Bool Int) Bool)
(declare-fun Proc3 (Int (Array Int Int) Int Bool Int) Bool)
(declare-fun Proc6 (Int (Array Int Int) Int Bool Int Int Int Int) Bool)
(declare-fun Proc38 (Int (Array Int Int) Int Bool Int (Array Int Int)) Bool)
(declare-fun Proc5 (Int (Array Int Int) Int Bool Int Int) Bool)
(declare-fun Proc26 (Int (Array Int Int) Int Bool Int) Bool)
(declare-fun Proc37 (Int (Array Int Int) Int Bool Int) Bool)
(declare-fun Proc1 (Int (Array Int Int) Int Bool Int) Bool)
(declare-fun Proc20 (Int (Array Int Int) Int Bool) Bool)
(declare-fun Proc42 (Int (Array Int Int) Int Bool) Bool)
(declare-fun Proc14 (Int (Array Int Int) Int Bool Int Int) Bool)
(declare-fun Proc19 (Int (Array Int Int) Int Bool) Bool)
(declare-fun Proc40 (Int (Array Int Int) Int Bool Int Int) Bool)
(declare-fun Proc41
             (Int (Array Int Int) Int Bool Int Int Int (Array Int Int) Int Int)
             Bool)
(declare-fun Proc15 (Int (Array Int Int) Int Bool Int Int Int Int) Bool)
(declare-fun Proc27 (Int (Array Int Int) Int Bool Int) Bool)
(declare-fun Proc28 (Int (Array Int Int) Int Bool Int) Bool)
(declare-fun Proc43
             (Int (Array Int Int) Int Bool Int Bool Int Int (Array Int Int))
             Bool)
(declare-fun Proc16 (Int (Array Int Int) Int Bool Int Int Int) Bool)
(declare-fun Proc21 (Int (Array Int Int) Int Bool Int) Bool)
(declare-fun Proc12 (Int (Array Int Int) Int Bool Int Int) Bool)
(declare-fun Proc34 (Int (Array Int Int) Int Bool Int) Bool)
(declare-fun Proc32 (Int (Array Int Int) Int Bool Int) Bool)
(declare-fun Proc0
             (Int (Array Int Int) Int Bool Int Int Int Int Int Int Int)
             Bool)
(declare-fun Proc11 (Int (Array Int Int) Int Bool) Bool)
(declare-fun Proc25 (Int (Array Int Int) Int Bool Int) Bool)
(declare-fun Proc4 (Int (Array Int Int) Int Bool Int Int Int) Bool)
(declare-fun Proc2 (Int (Array Int Int) Int Bool Int Int Int) Bool)
(declare-fun Proc22 (Int (Array Int Int) Int Bool Int) Bool)
(declare-fun Proc9 (Int (Array Int Int) Int Bool Int Int Int Int) Bool)
(declare-fun Proc18
             (Int (Array Int Int) Int Bool Int Int Int Int (Array Int Int) Int)
             Bool)
(declare-fun Proc35 (Int (Array Int Int) Int Bool Int) Bool)
(declare-fun Proc24
             (Int (Array Int Int) Int Bool Int Int Bool Int (Array Int Int))
             Bool)
(declare-fun Proc30 (Int (Array Int Int) Int Bool Int) Bool)
(declare-fun Proc39 (Int (Array Int Int) Int Bool) Bool)
(declare-fun Proc23 (Int (Array Int Int) Int Bool (Array Int Int) Int Int) Bool)
(declare-fun Proc33 (Int (Array Int Int) Int Bool Int) Bool)
(declare-fun Proc36 (Int (Array Int Int) Int Bool Int) Bool)
(declare-fun Proc13
             (Int (Array Int Int) Int Bool Int Int Int (Array Int Int) Int Int)
             Bool)
(declare-fun Proc29 (Int (Array Int Int) Int Bool Int) Bool)
(assert (forall ((A Int)
         (B Int)
         (C Int)
         (D Int)
         (E Int)
         (F Int)
         (G (Array Int Int))
         (H Int)
         (I Int)
         (J Int)
         (K Int)
         (L Int)
         (M Int)
         (N Int)
         (O Bool))
  (let ((a!1 (or (not (and (= N M) (= L 0))) (not (and (= K L) (= J N)))))
        (a!2 (and (not (<= H (+ 1 I))) (not (<= H M)))))
  (let ((a!3 (or (not (= I M))
                 (not a!2)
                 (not (and (= N H) (= L I)))
                 (not (and (= K L) (= J N))))))
    (=> (not (or (not O) (and a!1 a!3))) (Proc0 M G F O E D C B A K J))))))
(assert (forall ((A Int) (B Int) (C Int) (G (Array Int Int)) (O Bool))
  (=> O (Proc1 C G B O A))))
(assert (forall ((A Int) (B Int) (C Int) (D Int) (E Int) (G (Array Int Int)) (O Bool))
  (=> O (Proc2 E G D O C B A))))
(assert (forall ((A Int) (B Int) (C Int) (G (Array Int Int)) (O Bool))
  (=> O (Proc3 C G B O A))))
(assert (forall ((A Int) (B Int) (C Int) (D Int) (E Int) (G (Array Int Int)) (O Bool))
  (=> O (Proc4 E G D O C B A))))
(assert (forall ((A Int)
         (B Int)
         (C Int)
         (D Int)
         (E Int)
         (F Int)
         (G (Array Int Int))
         (H Int)
         (I Int)
         (J Int)
         (O Bool))
  (let ((a!1 (and (not (<= H (+ 1 J))) (not (<= H I)))))
  (let ((a!2 (or (not O)
                 (not (= J I))
                 (not a!1)
                 (not (Proc5 H G F O J E))
                 (not (and (= D H) (= C E))))))
    (=> (not a!2) (Proc6 I G F O B A D C))))))
(assert (forall ((A Int)
         (B Int)
         (C Int)
         (D Int)
         (E Int)
         (F Int)
         (G (Array Int Int))
         (H Int)
         (I Int)
         (J Int)
         (O Bool))
  (let ((a!1 (and (not (<= H (+ 1 J))) (not (<= H I)))))
  (let ((a!2 (or (not O)
                 (not (= J I))
                 (not a!1)
                 (not (Proc5 H G F O J E))
                 (not (and (= D H) (= C E))))))
    (=> (not a!2) (Proc7 I G F O B A D C))))))
(assert (forall ((A Int) (B Int) (C Int) (D Int) (G (Array Int Int)) (O Bool))
  (let ((a!1 (not (or (not O) (not (= D 1))))))
    (=> a!1 (Proc5 C G B O A D)))))
(assert (forall ((A Int) (B Int) (C Int) (G (Array Int Int)) (O Bool))
  (=> false (Proc8 C G B O A))))
(assert (forall ((A Int)
         (B Int)
         (C Int)
         (D Int)
         (E Int)
         (F Int)
         (G (Array Int Int))
         (H Int)
         (I Int)
         (J Int)
         (K Int)
         (O Bool))
  (let ((a!1 (not (= (select G (+ 36 K)) 259)))
        (a!2 (or (not (= E 1))
                 (not (and (= D F) (= C E)))
                 (not (and (= B D) (= A C)))))
        (a!3 (or (= E 1)
                 (not (and (= D F) (= C E)))
                 (not (and (= B D) (= A C)))))
        (a!4 (or (= (select G (+ 36 K)) 259)
                 (not (and (= D J) (= C I)))
                 (not (and (= B D) (= A C))))))
  (let ((a!5 (and (or a!1 (not (Proc6 J G I O H K F E)) (and a!2 a!3)) a!4)))
    (=> (not (or (not O) (= K 0) a!5)) (Proc9 J G I O H K B A))))))
(assert (forall ((A Int)
         (B Int)
         (C Int)
         (D Int)
         (E Int)
         (F Int)
         (G (Array Int Int))
         (H Int)
         (I Int)
         (J Int)
         (K Int)
         (L Int)
         (M Int)
         (O Bool))
  (let ((a!1 (or (not (= H 1))
                 (not (and (= F I) (= E H)))
                 (not (and (= D F) (= C E)))))
        (a!2 (or (= H 1)
                 (not (and (= F I) (= E H)))
                 (not (and (= D F) (= C E)))))
        (a!3 (and (not (<= A (+ 1 B))) (not (<= A L)))))
  (let ((a!4 (or (= M 259)
                 (not (= B L))
                 (not a!3)
                 (not (Proc8 A G K O B))
                 (not (and (= F A) (= E K)))
                 (not (and (= D F) (= C E)))))
        (a!5 (or (not (= B L))
                 (not a!3)
                 (not (Proc8 A G K O B))
                 (not (and (= F A) (= E K)))
                 (not (and (= D F) (= C E))))))
  (let ((a!6 (and (or (not (= M 259))
                      (not (Proc7 L G K O J M I H))
                      (and a!1 a!2))
                  a!4
                  a!5)))
    (=> (not (or (not O) a!6)) (Proc10 L G K O J M D C)))))))
(assert (forall ((A Int)
         (B Int)
         (C Int)
         (D Int)
         (E Int)
         (F Int)
         (G (Array Int Int))
         (H Int)
         (I Int)
         (J Int)
         (K Int)
         (L Int)
         (M Int)
         (N Int)
         (O Bool)
         (P (Array Int Int))
         (Q Int)
         (R Bool)
         (S Int)
         (T Int)
         (U (Array Int Int))
         (V Int)
         (W Bool))
  (let ((a!1 (not (and (not (= S 0)) R)))
        (a!2 (not (and (= J M) O (= I L) (= H K))))
        (a!4 (and (not (<= E (+ 1 F))) (not (<= E V))))
        (a!9 (= R (= P (store U (+ 36 S) 0)))))
  (let ((a!3 (or (not (and (= Q V) (= N T)))
                 (not (Proc12 Q P N W S 0))
                 (not (= M 0))
                 (not (and (= L Q) (= K N)))
                 a!2))
        (a!5 (or (not (and (= C 1) (= M B) (= L D) (= K C))) a!2))
        (a!6 (or (= C 1)
                 (not (and (= Q D) (= N C)))
                 (not (Proc12 Q P N W S 0))
                 (not (= M 0))
                 (not (and (= L Q) (= K N)))
                 a!2)))
  (let ((a!7 (and a!3
                  (or (not (= F V))
                      (not a!4)
                      (not (Proc9 E P T W F S D C))
                      (and a!5 a!6)))))
  (let ((a!8 (not (or (not W) (not (Proc11 V U T W)) a!1 (= S 0) a!7))))
    (=> (and a!8 a!9 (= O (= G P))) (Proc13 V U T W A S J G I H))))))))
(assert (forall ((A Int)
         (B Int)
         (C Int)
         (D Int)
         (E Int)
         (F Int)
         (G (Array Int Int))
         (H Int)
         (I Int)
         (J Int)
         (K Int)
         (L Int)
         (M Int)
         (N Int)
         (O Bool)
         (P (Array Int Int))
         (Q Int)
         (R Bool)
         (S Int)
         (T Int)
         (U (Array Int Int))
         (V Int)
         (W Bool)
         (X Int)
         (Y Int)
         (Z Int)
         (A1 Int)
         (B1 Int)
         (C1 Int)
         (D1 Int)
         (E1 Int)
         (F1 Int)
         (G1 Int)
         (H1 Int)
         (I1 Int)
         (J1 Int)
         (K1 Int)
         (L1 Int)
         (M1 Int)
         (N1 Int)
         (O1 Int)
         (P1 Int)
         (Q1 Int)
         (R1 Int)
         (S1 Int)
         (T1 Int)
         (U1 Int)
         (V1 Int)
         (W1 Int)
         (X1 Int)
         (Y1 Int)
         (Z1 Int)
         (A2 Int)
         (B2 Int)
         (C2 Int)
         (D2 Int)
         (E2 Int)
         (F2 Int)
         (G2 Int)
         (H2 Int))
  (let ((a!1 (and (not (<= F2 (+ 1 H2))) (not (<= F2 G2))))
        (a!2 (not (and (not (= B2 0)) (Proc15 F2 U C2 W X1 16 W1 V1))))
        (a!3 (not (and (not (= B2 0)) (Proc16 V1 U C2 W U1 T1 S1))))
        (a!4 (not (and (not (= B2 0)) R)))
        (a!5 (not (and (= K1 N1) (= J1 L1) O (= I1 M1))))
        (a!7 (and (not (<= G1 (+ 1 H1))) (not (<= G1 R1))))
        (a!13 (not (and (not (= B2 0)) (Proc15 F2 U C2 W B1 16 A1 Z))))
        (a!38 (= R (= P (store U (+ 36 B2) Q1)))))
  (let ((a!6 (or (not (and (= P1 C2) (= O1 R1)))
                 (not (Proc12 O1 P P1 W B2 0))
                 (not (= N1 Q1))
                 (not (and (= M1 P1) (= L1 O1)))
                 a!5))
        (a!8 (or (not (and (= E1 1) (= N1 D1) (= M1 E1) (= L1 F1))) a!5))
        (a!9 (or (= E1 1)
                 (not (and (= P1 E1) (= O1 F1)))
                 (not (Proc12 O1 P P1 W B2 0))
                 (not (= N1 Q1))
                 (not (and (= M1 P1) (= L1 O1)))
                 a!5)))
  (let ((a!10 (and a!6
                   (or (not (= H1 R1))
                       (not a!7)
                       (not (Proc9 G1 P C2 W H1 B2 F1 E1))
                       (and a!8 a!9)))))
  (let ((a!11 (or (= W1 0) (= B2 0) a!3 (not (and (= R1 S1) (= Q1 0))) a!4 a!10))
        (a!12 (or (not (= W1 0))
                  (not (= C1 (- 1073741670)))
                  (not (and (= R1 V1) (= Q1 C1)))
                  a!4
                  a!10))
        (a!14 (or (not (<= E2 Y1))
                  (= B2 0)
                  (not (and (= R1 Z) (= Q1 0)))
                  a!4
                  a!10))
        (a!15 (or (<= E2 Y1) (= B2 0) (not (and (= R1 Z) (= Q1 0))) a!4 a!10))
        (a!16 (or (not (= A1 0))
                  (not (= Y (- 1073741670)))
                  (not (and (= R1 Z) (= Q1 Y)))
                  a!4
                  a!10))
        (a!18 (or (not (<= E2 Y1))
                  (= B2 0)
                  (not (and (= R1 F2) (= Q1 0)))
                  a!4
                  a!10))
        (a!19 (or (<= E2 Y1) (= B2 0) (not (and (= R1 F2) (= Q1 0))) a!4 a!10))
        (a!20 (or (not (= V (- 1073741808)))
                  (not (and (= R1 F2) (= Q1 V)))
                  a!4
                  a!10))
        (a!21 (or (not (<= E2 Y1))
                  (= B2 0)
                  (not (and (= R1 H) (= Q1 0)))
                  a!4
                  a!10))
        (a!22 (or (<= E2 Y1) (= B2 0) (not (and (= R1 H) (= Q1 0))) a!4 a!10))
        (a!23 (or (not (= I 0))
                  (not (Proc3 H U C2 W K))
                  (not (Proc1 H U C2 W K))
                  (not (= F (- 1073741670)))
                  (not (and (= R1 H) (= Q1 F)))
                  a!4
                  a!10))
        (a!25 (or (not (= K 0))
                  (not (= E (- 1073741670)))
                  (not (and (= R1 J) (= Q1 E)))
                  a!4
                  a!10))
        (a!27 (or (not (= N 0))
                  (not (= D (- 1073741670)))
                  (not (Proc3 M U C2 W S))
                  (not (Proc1 M U C2 W S))
                  (not (and (= R1 M) (= Q1 D)))
                  a!4
                  a!10))
        (a!29 (or (not (= S 0))
                  (not (= C (- 1073741670)))
                  (not (and (= R1 Q) (= Q1 C)))
                  a!4
                  a!10))
        (a!35 (or (not (= Y1 0))
                  (not (= B (- 1073741811)))
                  (not (and (= R1 F2) (= Q1 B)))
                  a!4
                  a!10))
        (a!36 (or (not (= Z1 0))
                  (not (= B (- 1073741811)))
                  (not (and (= R1 F2) (= Q1 B)))
                  a!4
                  a!10)))
  (let ((a!17 (and (or (= A1 0)
                       (not (Proc17 Z U C2 W A1 H2 Y1))
                       (and a!14 a!15))
                   a!16))
        (a!24 (and (or (= I 0)
                       (not (Proc17 H U C2 W I H2 Y1))
                       (not (Proc3 H U C2 W K))
                       (not (Proc1 H U C2 W K))
                       (and a!21 a!22))
                   a!23)))
  (let ((a!26 (and (or (= K 0)
                       (not (Proc2 J U C2 W K 1 1))
                       (not (Proc15 J U C2 W K 16 I H))
                       a!24)
                   a!25)))
  (let ((a!28 (and (or (= N 0)
                       (not (Proc3 M U C2 W S))
                       (not (Proc1 M U C2 W S))
                       (not (Proc0 M U C2 W L Y1 0 1 0 K J))
                       a!26)
                   a!27)))
  (let ((a!30 (and (or (= S 0)
                       (not (Proc2 Q U C2 W S 1 0))
                       (not (Proc15 Q U C2 W S 16 N M))
                       a!28)
                   a!29)))
  (let ((a!31 (and a!20
                   (or (= A2 0)
                       (= B2 0)
                       (not (Proc4 F2 U C2 W T Z1 1))
                       (not (Proc0 F2 U C2 W T Z1 0 1 0 S Q))
                       a!30))))
  (let ((a!32 (and (or (= B2 0)
                       (not (Proc17 F2 U C2 W X H2 Y1))
                       (and a!18 a!19))
                   (or (= A2 0) a!31))))
  (let ((a!33 (or (= A2 0) (and (or (= B2 0) a!13 a!17) (or (= A2 0) a!32)))))
  (let ((a!34 (or (= Y1 0)
                  (= A2 0)
                  (and (or (= B2 0) a!2 (and a!11 a!12)) a!33))))
  (let ((a!37 (or (not W)
                  (not (= H2 G2))
                  (not a!1)
                  (not (= E2 (+ 1 D2)))
                  (not (Proc11 F2 U C2 W))
                  (not (Proc14 F2 U C2 W B2 A2))
                  (= A2 0)
                  (and (or (= Z1 0) (and a!34 a!35)) a!36))))
    (=> (and (not a!37) a!38 (= O (= G P))) (Proc18 G2 U C2 W A B2 K1 J1 G I1)))))))))))))))))
(assert (forall ((A Int) (B Int) (G (Array Int Int)) (O Bool)) (=> O (Proc19 B G A O))))
(assert (forall ((A Int) (B Int) (G (Array Int Int)) (O Bool)) (=> O (Proc20 B G A O))))
(assert (forall ((A Int) (B Int) (C Int) (G (Array Int Int)) (O Bool))
  (let ((a!1 (not (or (not O) (not (= C 0))))))
    (=> a!1 (Proc21 B G A O C)))))
(assert (forall ((A Int)
         (B Int)
         (C Int)
         (D Int)
         (E Int)
         (F Int)
         (G (Array Int Int))
         (H Int)
         (I Int)
         (J Int)
         (K Int)
         (L Int)
         (M Int)
         (O Bool)
         (P (Array Int Int))
         (R Bool)
         (U (Array Int Int))
         (W Bool)
         (I2 Bool)
         (J2 Bool))
  (let ((a!1 (not (and (not (<= M 0)) (Proc22 M U L J2 K))))
        (a!2 (not (and (= D F) (= C H) (= W I2) (= B I) R))))
  (let ((a!3 (or (= H 0) (not (and (= F E) (not I2))) a!2))
        (a!4 (or (not (and (= H 0) (= O J2))) (not (and (= F A) (= I2 O))) a!2)))
  (let ((a!5 (and (or (= H 1) (and a!3 a!4)) (or (not (= H 1)) (and a!3 a!4)))))
  (let ((a!6 (not (or (not J2)
                      a!1
                      (not (Proc21 K U L J2 J))
                      (not (Proc20 K U J J2))
                      (not (Proc19 K U J J2))
                      (not (Proc23 K U J J2 P I H))
                      a!5))))
    (=> (and a!6 (= R (= G P))) (Proc24 M U L J2 D C W B G))))))))
(assert (forall ((A Int) (B Int) (C Int) (G (Array Int Int)) (O Bool))
  (let ((a!1 (not (or (not O) (not (= C 0))))))
    (=> a!1 (Proc25 B G A O C)))))
(assert (forall ((A Int) (B Int) (C Int) (G (Array Int Int)) (O Bool))
  (let ((a!1 (not (or (not O) (not (= C 0))))))
    (=> a!1 (Proc26 B G A O C)))))
(assert (forall ((A Int) (B Int) (C Int) (G (Array Int Int)) (O Bool))
  (let ((a!1 (not (or (not O) (not (= C 1))))))
    (=> a!1 (Proc27 B G A O C)))))
(assert (forall ((A Int) (B Int) (C Int) (G (Array Int Int)) (O Bool))
  (let ((a!1 (not (or (not O) (not (= C 0))))))
    (=> a!1 (Proc28 B G A O C)))))
(assert (forall ((A Int) (B Int) (C Int) (G (Array Int Int)) (O Bool))
  (let ((a!1 (not (or (not O) (not (= C 1))))))
    (=> a!1 (Proc29 B G A O C)))))
(assert (forall ((A Int) (B Int) (C Int) (G (Array Int Int)) (O Bool))
  (let ((a!1 (not (or (not O) (not (= C 0))))))
    (=> a!1 (Proc30 B G A O C)))))
(assert (forall ((A Int) (B Int) (C Int) (G (Array Int Int)) (O Bool))
  (let ((a!1 (not (or (not O) (not (= C 0))))))
    (=> a!1 (Proc31 B G A O C)))))
(assert (forall ((A Int) (B Int) (C Int) (G (Array Int Int)) (O Bool))
  (let ((a!1 (not (or (not O) (not (= C 0))))))
    (=> a!1 (Proc32 B G A O C)))))
(assert (forall ((A Int) (B Int) (C Int) (G (Array Int Int)) (O Bool))
  (let ((a!1 (not (or (not O) (not (= C 0))))))
    (=> a!1 (Proc33 B G A O C)))))
(assert (forall ((A Int) (B Int) (C Int) (G (Array Int Int)) (O Bool))
  (let ((a!1 (not (or (not O) (not (= C 0))))))
    (=> a!1 (Proc34 B G A O C)))))
(assert (forall ((A Int) (B Int) (C Int) (G (Array Int Int)) (O Bool))
  (let ((a!1 (not (or (not O) (not (= C 0))))))
    (=> a!1 (Proc35 B G A O C)))))
(assert (forall ((A Int) (B Int) (C Int) (D Int) (G (Array Int Int)) (O Bool))
  (let ((a!1 (or (not O) (not (= D (- 1073741823))) (not (= C D)))))
    (=> (not a!1) (Proc36 B G A O C)))))
(assert (forall ((A Int) (B Int) (C Int) (D Int) (G (Array Int Int)) (O Bool))
  (=> O (Proc12 D G C O B A))))
(assert (forall ((A Int) (B Int) (C Int) (G (Array Int Int)) (O Bool))
  (let ((a!1 (not (or (not O) (not (= C 0))))))
    (=> a!1 (Proc37 B G A O C)))))
(assert (forall ((A Int) (B Int) (C Int) (D Int) (E Int) (G (Array Int Int)) (O Bool))
  (let ((a!1 (not (or (not O) (= E 0) (not (= D C))))))
    (=> a!1 (Proc14 B G A O E D)))))
(assert (forall ((A Int)
         (B Int)
         (C Int)
         (D Int)
         (E Int)
         (F Int)
         (G (Array Int Int))
         (H Int)
         (O Bool))
  (let ((a!1 (and (not (<= E (+ 1 H))) (not (<= E F)))))
  (let ((a!2 (or (not O) (not (= H F)) (not a!1) (not (and (= D H) (= C E))))))
    (=> (not a!2) (Proc16 F G B O A D C))))))
(assert (forall ((A Int)
         (B Int)
         (C Int)
         (D Int)
         (E Int)
         (F Int)
         (G (Array Int Int))
         (H Int)
         (I Int)
         (J Int)
         (K Int)
         (O Bool))
  (let ((a!1 (or (not (and (= K J) (= I 0))) (not (and (= H I) (= F K)))))
        (a!2 (and (not (<= D (+ 1 E))) (not (<= D J)))))
  (let ((a!3 (or (not (= E J))
                 (not a!2)
                 (not (and (= K D) (= I E)))
                 (not (and (= H I) (= F K))))))
    (=> (not (or (not O) (and a!1 a!3))) (Proc15 J G C O B A H F))))))
(assert (forall ((A Int) (B Int) (C Int) (D Int) (E Int) (G (Array Int Int)) (O Bool))
  (=> O (Proc17 E G D O C B A))))
(assert (forall ((A Int)
         (B Int)
         (C Int)
         (D Int)
         (E Int)
         (F Int)
         (G (Array Int Int))
         (H Int)
         (I Int)
         (J Int)
         (K Int)
         (L Int)
         (M Int)
         (N Int)
         (O Bool)
         (P (Array Int Int))
         (Q Int)
         (R Bool)
         (S Int)
         (T Int)
         (U (Array Int Int))
         (V Int)
         (W Bool)
         (X Int)
         (Y Int)
         (Z Int)
         (A1 Int)
         (B1 Int)
         (C1 Int)
         (D1 Int)
         (E1 Int)
         (F1 Int)
         (G1 Int)
         (H1 Int)
         (I1 Int)
         (J1 Int)
         (K1 Int)
         (L1 Int)
         (M1 Int)
         (N1 Int)
         (O1 Int)
         (P1 Int)
         (Q1 Int)
         (R1 Int)
         (S1 Int)
         (T1 Int)
         (U1 Int)
         (V1 Int)
         (W1 Int)
         (X1 Int)
         (Y1 Int)
         (Z1 Int)
         (I2 Bool)
         (J2 Bool)
         (K2 (Array Int Int))
         (L2 Bool)
         (M2 (Array Int Int))
         (N2 Bool)
         (O2 Bool)
         (P2 Bool)
         (Q2 (Array Int Int))
         (R2 (Array Int Int))
         (S2 (Array Int Int))
         (T2 Bool))
  (let ((a!1 (not (and (= N1 P1) O2 (= M1 Q1) (= L1 R1))))
        (a!3 (not (and (= R1 G1) (= Q1 H1) (= P1 K1) L2)))
        (a!5 (and (not (<= E1 (+ 1 F1))) (not (<= E1 I1))))
        (a!27 (not (and (= K1 C) W (= J1 X1) (= I1 Y1)))))
  (let ((a!2 (or (not (= S1 1))
                 (not (and (= R1 S1) (= Q1 T1) (= P1 O1) P2))
                 a!1))
        (a!4 (or (not (and (= H1 I1) (= G1 J1)))
                 (not (Proc40 H1 M2 G1 T2 K1 Z1))
                 (= Z1 0)
                 a!3
                 a!1))
        (a!6 (or (not (= C1 1))
                 (not (and (= R1 C1) (= Q1 D1) (= P1 O1) L2))
                 a!1))
        (a!7 (or (= C1 1)
                 (not (and (= H1 D1) (= G1 C1)))
                 (not (Proc40 H1 M2 G1 T2 K1 Z1))
                 (= Z1 0)
                 a!3
                 a!1))
        (a!10 (or (not (= Z 1)) (not (and (= R1 Z) (= Q1 A1) (= P1 O1) J2)) a!1))
        (a!18 (or (not (= L 1)) (not (and (= R1 L) (= Q1 M) (= P1 O1) R)) a!1)))
  (let ((a!8 (and a!4
                  (or (not (= F1 I1))
                      (not a!5)
                      (not (Proc10 E1 M2 J1 T2 F1 K1 D1 C1))
                      (and a!6 a!7)))))
  (let ((a!9 (or (= S1 1) (not (and (= K1 U1) N2 (= J1 S1) (= I1 T1))) a!8))
        (a!11 (or (= Z 1) (not (and (= K1 B1) I2 (= J1 Z) (= I1 A1))) a!8))
        (a!12 (or (= W1 0)
                  (not (Proc36 Y1 R2 X1 T2 Y))
                  (not (and (= K1 Y) W (= J1 X1) (= I1 Y1)))
                  a!8))
        (a!13 (or (= W1 0)
                  (not (Proc36 Y1 R2 X1 T2 X))
                  (not (and (= K1 X) W (= J1 X1) (= I1 Y1)))
                  a!8))
        (a!14 (or (= W1 0)
                  (not (Proc36 Y1 R2 X1 T2 V))
                  (not (and (= K1 V) W (= J1 X1) (= I1 Y1)))
                  a!8))
        (a!15 (or (= W1 0)
                  (not (Proc36 Y1 R2 X1 T2 T))
                  (not (and (= K1 T) W (= J1 X1) (= I1 Y1)))
                  a!8))
        (a!16 (or (= W1 0)
                  (not (Proc36 Y1 R2 X1 T2 S))
                  (not (and (= K1 S) W (= J1 X1) (= I1 Y1)))
                  a!8))
        (a!17 (or (not (Proc36 Y1 R2 X1 T2 Q))
                  (not (and (= K1 Q) W (= J1 X1) (= I1 Y1)))
                  a!8))
        (a!19 (or (= L 1) (not (and (= K1 N) O (= J1 L) (= I1 M))) a!8))
        (a!20 (or (= W1 0)
                  (not (Proc36 Y1 R2 X1 T2 K))
                  (not (and (= K1 K) W (= J1 X1) (= I1 Y1)))
                  a!8))
        (a!21 (or (= W1 0)
                  (not (Proc36 Y1 R2 X1 T2 J))
                  (not (and (= K1 J) W (= J1 X1) (= I1 Y1)))
                  a!8))
        (a!22 (or (not (Proc36 Y1 R2 X1 T2 I))
                  (not (and (= K1 I) W (= J1 X1) (= I1 Y1)))
                  a!8))
        (a!23 (or (= W1 0)
                  (not (Proc36 Y1 R2 X1 T2 H))
                  (not (and (= K1 H) W (= J1 X1) (= I1 Y1)))
                  a!8))
        (a!24 (or (= W1 0)
                  (not (Proc36 Y1 R2 X1 T2 F))
                  (not (and (= K1 F) W (= J1 X1) (= I1 Y1)))
                  a!8))
        (a!25 (or (= W1 0)
                  (not (Proc36 Y1 R2 X1 T2 E))
                  (not (and (= K1 E) W (= J1 X1) (= I1 Y1)))
                  a!8))
        (a!26 (or (not (Proc36 Y1 R2 X1 T2 D))
                  (not (and (= K1 D) W (= J1 X1) (= I1 Y1)))
                  a!8))
        (a!28 (and (or (= W1 0) (not (Proc36 Y1 R2 X1 T2 C)) a!27 a!8)
                   (or (not (= B 1))
                       (= B 0)
                       (= W1 0)
                       (not (Proc36 Y1 R2 X1 T2 C))
                       a!27
                       a!8))))
  (let ((a!29 (and (or (= W1 0) a!28) (or (not (= A 1)) (= A 0) (= W1 0) a!28))))
  (let ((a!30 (and (or (= W1 0)
                       (not (Proc13 Y1 R2 X1 T2 V1 Z1 U1 Q2 T1 S1))
                       (and a!2 a!9))
                   (or (= W1 0)
                       (not (Proc13 Y1 R2 X1 T2 V1 Z1 B1 K2 A1 Z))
                       (and a!10 a!11))
                   a!12
                   a!13
                   a!14
                   a!15
                   a!16
                   a!17
                   (or (= W1 0)
                       (not (Proc18 Y1 R2 X1 T2 V1 Z1 N M U L))
                       (and a!18 a!19))
                   a!20
                   a!21
                   a!22
                   a!23
                   a!24
                   a!25
                   a!26
                   (or (= W1 0) a!29))))
  (let ((a!31 (not (or (not T2)
                       (= Z1 0)
                       (not (Proc38 Y1 S2 X1 T2 Z1 R2))
                       (= W1 0)
                       (not (Proc39 Y1 R2 X1 T2))
                       a!30))))
    (=> (and a!31
             (= P2 (= P Q2))
             (= O2 (= G P))
             (= N2 (= M2 Q2))
             (= L2 (= P M2))
             (= J2 (= P K2))
             (= I2 (= M2 K2))
             (= W (= M2 R2))
             (= R (= P U))
             (= O (= M2 U)))
        (Proc41 Y1 S2 X1 T2 V1 Z1 N1 G M1 L1)))))))))))
(assert (forall ((A Int)
         (B Int)
         (C Int)
         (G (Array Int Int))
         (O Bool)
         (P (Array Int Int))
         (R Bool)
         (U (Array Int Int))
         (W Bool)
         (I2 Bool)
         (J2 Bool)
         (K2 (Array Int Int))
         (L2 Bool)
         (M2 (Array Int Int)))
  (let ((a!1 (and (or (= C 0) (not (and J2 I2)) (not W))
                  (or (= C 0) (not (and R O)) (not W))))
        (a!2 (= J2 (= M2 (store K2 (+ 36 C) (- 1073741637)))))
        (a!3 (= R (= G (store K2 (+ 36 C) 0)))))
  (let ((a!4 (and (not (or (not L2) a!1))
                  a!2
                  (= I2 (= U M2))
                  (= W (= P U))
                  a!3
                  (= O (= U G)))))
    (=> a!4 (Proc38 B K2 A L2 C P))))))
(assert (forall ((A Int) (B Int) (G (Array Int Int)) (O Bool)) (=> O (Proc11 B G A O))))
(assert (forall ((A Int)
         (B Int)
         (C Int)
         (D Int)
         (E Int)
         (F Int)
         (G (Array Int Int))
         (H Int)
         (I Int)
         (J Int)
         (K Int)
         (L Int)
         (M Int)
         (N Int)
         (O Bool)
         (P (Array Int Int))
         (Q Int)
         (R Bool)
         (S Int)
         (T Int)
         (U (Array Int Int))
         (V Int)
         (W Bool)
         (X Int)
         (Y Int)
         (Z Int)
         (A1 Int)
         (B1 Int)
         (C1 Int)
         (I2 Bool)
         (K2 (Array Int Int)))
  (let ((a!1 (or (not W)
                 (not (and (= J C1) (= I B1)))
                 (not (and R (= H J) (= F I)))))
        (a!2 (or (not (and (= A 1) O (= J B) (= I A)))
                 (not (and R (= H J) (= F I)))))
        (a!3 (not (and (not (= A 1)) O (= J B) (= I A))))
        (a!5 (or (not (and (= A1 0) W (= J C1) (= I B1)))
                 (not (and R (= H J) (= F I))))))
  (let ((a!4 (or a!3 (not (and R (= H J) (= F I))))))
  (let ((a!6 (and a!1
                  (or (= A1 0)
                      (not (Proc42 C1 K2 B1 I2))
                      (not (Proc41 C1 K2 B1 I2 E D C U B A))
                      (and a!2 a!4))
                  a!5)))
  (let ((a!7 (not (or (not I2)
                      (not (Proc27 C1 K2 B1 I2 A1))
                      (not (Proc34 C1 K2 B1 I2 Z))
                      (not (Proc28 C1 K2 B1 I2 Y))
                      (not (Proc33 C1 K2 B1 I2 X))
                      (not (Proc26 C1 K2 B1 I2 V))
                      (not (Proc30 C1 K2 B1 I2 T))
                      (not (Proc37 C1 K2 B1 I2 S))
                      (not (Proc35 C1 K2 B1 I2 Q))
                      (not (Proc25 C1 K2 B1 I2 N))
                      (not (Proc31 C1 K2 B1 I2 M))
                      (not (Proc32 C1 K2 B1 I2 L))
                      (not (Proc29 C1 K2 B1 I2 K))
                      a!6))))
    (=> (and a!7 (= W (= P K2)) (= R (= G P)) (= O (= P U)))
        (Proc23 C1 K2 B1 I2 G H F))))))))
(assert (forall ((A Int) (B Int) (G (Array Int Int)) (O Bool)) (=> O (Proc39 B G A O))))
(assert (forall ((A Int) (B Int) (C Int) (D Int) (G (Array Int Int)) (O Bool))
  (=> O (Proc40 D G C O B A))))
(assert (forall ((A Int) (B Int) (G (Array Int Int)) (O Bool)) (=> O (Proc42 B G A O))))
(assert (forall ((A Int)
         (B Int)
         (C Int)
         (D Int)
         (E Int)
         (F Int)
         (G (Array Int Int))
         (H Int)
         (I Int)
         (J Int)
         (K Int)
         (L Int)
         (M Int)
         (N Int)
         (O Bool)
         (Q Int)
         (S Int)
         (T Int)
         (V Int)
         (X Int)
         (Y Int)
         (Z Int)
         (A1 Int)
         (B1 Int)
         (C1 Int)
         (D1 Int)
         (E1 Int)
         (F1 Int)
         (G1 Int)
         (H1 Int)
         (I1 Int)
         (J1 Int)
         (K1 Int)
         (L1 Int)
         (M1 Int)
         (N1 Int)
         (O1 Int)
         (P1 Int)
         (Q1 Int)
         (R1 Int)
         (S1 Int)
         (T1 Int)
         (U1 Int)
         (V1 Int)
         (W1 Int)
         (X1 Int)
         (Y1 Int)
         (Z1 Int)
         (A2 Int)
         (B2 Int)
         (C2 Int)
         (D2 Int)
         (E2 Int))
  (let ((a!1 (and (= E2 D2)
                  (not (<= C2 (+ 240 E2)))
                  (not (<= C2 D2))
                  (= B2 C2)
                  (not (<= A2 (+ 4 B2)))
                  (not (<= A2 C2))
                  (= Z1 A2)
                  (not (<= Y1 (+ 332 Z1)))))
        (a!2 (and (not (<= Y1 A2))
                  (= X1 Y1)
                  (not (<= W1 (+ 4 X1)))
                  (not (<= W1 Y1))
                  (= V1 W1)
                  (not (<= U1 (+ 536 V1)))
                  (not (<= U1 W1))
                  (= T1 U1)
                  (not (<= S1 (+ 240 T1)))
                  (not (<= S1 U1))
                  (= R1 S1)
                  (not (<= Q1 (+ 240 R1)))
                  (not (<= Q1 S1))
                  (= P1 Q1)
                  (not (<= O1 (+ 240 P1)))
                  (not (<= O1 Q1))
                  (= N1 O1)
                  (not (<= M1 (+ 4 N1)))
                  (not (<= M1 O1))
                  (= L1 M1)
                  (not (<= K1 (+ 536 L1)))
                  (not (<= K1 M1))
                  (= J1 K1)
                  (not (<= I1 (+ 332 J1)))
                  (not (<= I1 K1))
                  (= H1 I1)
                  (not (<= G1 (+ 240 H1)))
                  (not (<= G1 I1))
                  (= F1 G1)
                  (not (<= E1 (+ 240 F1)))
                  (not (<= E1 G1))
                  (= D1 E1)
                  (not (<= C1 (+ 332 D1)))
                  (not (<= C1 E1))
                  (= B1 C1)
                  (not (<= A1 (+ 4 B1)))
                  (not (<= A1 C1))
                  (= Z A1)
                  (not (<= Y (+ 240 Z)))
                  (not (<= Y A1))
                  (= X Y)
                  (not (<= V (+ 240 X)))
                  (not (<= V Y))
                  (= T V)
                  (not (<= S (+ 240 T)))
                  (not (<= S V))
                  (= Q S)
                  (not (<= N (+ 240 Q)))
                  (not (<= N S))
                  (= M N)
                  (not (<= L (+ 240 M)))
                  (not (<= L N))
                  (= K L)
                  (not (<= J (+ 40 K)))
                  (not (<= J L))
                  (= I J)
                  (not (<= H (+ 332 I)))
                  (not (<= H J))
                  (= F H)
                  (not (<= E (+ 4 F)))
                  (not (<= E H))
                  (= D E)
                  (not (<= C (+ 40 D)))
                  (not (<= C E)))))
  (let ((a!3 (not (or (not O) (not a!1) (not a!2) (not (= B C))))))
    (=> a!3 (Proc22 D2 G A O B))))))
(assert (forall ((A Int)
         (B Int)
         (C Int)
         (D Int)
         (E Int)
         (F Int)
         (G (Array Int Int))
         (H Int)
         (I Int)
         (O Bool)
         (P (Array Int Int))
         (R Bool)
         (U (Array Int Int))
         (W Bool))
  (let ((a!1 (or (not W) (not (and (Proc24 I U H true F E R D P) (not R))))))
    (=> (not a!1) (Proc43 I U H W C O B A G)))))
(assert (let ((a!1 (exists ((V0 Int)
                    (V1 (Array Int Int))
                    (V2 Int)
                    (V3 Bool)
                    (V4 Int)
                    (V5 Bool)
                    (V6 Int)
                    (V7 Int)
                    (V8 (Array Int Int)))
             (not (=> (and (Proc43 V0 V1 V2 V3 V4 V5 V6 V7 V8) (not false))
                      false)))))
  (not a!1)))

(check-sat)
